NAME: ../File/prFile/tspFile/tsp_file6.tsp
COMMENT: TSP file generated by Python
TYPE: TSP
DIMENSION: 30
EDGE_WEIGHT_TYPE: EUC_2D
NODE_COORD_SECTION
1 23 88
2 45 1
3 53 33
4 19 41
5 23 83
6 49 34
7 90 21
8 38 32
9 69 100
10 33 44
11 39 54
12 82 85
13 49 61
14 78 82
15 75 44
16 86 27
17 10 56
18 31 8
19 38 50
20 24 63
21 32 11
22 31 43
23 34 49
24 94 40
25 26 56
26 77 15
27 32 55
28 65 9
29 71 36
30 94 86
EOF
